# Solution for model s-icep
# Objective value = 0
flowLmbda[0,0,0] 1
flowLmbda[0,1,0] 1
flowLmbda[1,0,0] 1
flowLmbda[1,1,0] 1
flowLmbda[2,0,0] 1
flowLmbda[2,1,0] 1
flowLmbda[3,0,0] 1
flowLmbda[3,1,0] 1
flowLmbda[4,0,0] 1
flowLmbda[4,1,0] 1
flowBeta[0,0,0,0,0] 0
flowBeta[0,0,0,0,1] 0
flowBeta[0,0,0,1,0] 0
flowBeta[0,0,0,1,1] 0
flowBeta[0,0,1,0,0] 0
flowBeta[0,0,1,0,1] 0
flowBeta[0,0,1,1,0] 0
flowBeta[0,0,1,1,1] 0
flowBeta[0,0,2,0,0] 0
flowBeta[0,0,2,0,1] 0
flowBeta[0,0,2,1,0] 0
flowBeta[0,0,2,1,1] 0
flowBeta[0,0,3,0,0] 0
flowBeta[0,0,3,0,1] 0
flowBeta[0,0,3,1,0] 0
flowBeta[0,0,3,1,1] 0
flowBeta[0,0,4,0,0] 0
flowBeta[0,0,4,0,1] 0
flowBeta[0,0,4,1,0] 0
flowBeta[0,0,4,1,1] 0
flowBeta[1,0,0,0,0] 0
flowBeta[1,0,0,0,1] 24
flowBeta[1,0,0,1,0] 0
flowBeta[1,0,0,1,1] 0
flowBeta[1,0,1,0,0] 0
flowBeta[1,0,1,0,1] 0
flowBeta[1,0,1,1,0] 24
flowBeta[1,0,1,1,1] 0
flowBeta[1,0,2,0,0] 24
flowBeta[1,0,2,0,1] 0
flowBeta[1,0,2,1,0] 0
flowBeta[1,0,2,1,1] 0
flowBeta[1,0,3,0,0] 24
flowBeta[1,0,3,0,1] 0
flowBeta[1,0,3,1,0] 0
flowBeta[1,0,3,1,1] 0
flowBeta[1,0,4,0,0] 0
flowBeta[1,0,4,0,1] 0
flowBeta[1,0,4,1,0] 0
flowBeta[1,0,4,1,1] 0
flowBeta[2,0,0,0,0] 0
flowBeta[2,0,0,0,1] 0
flowBeta[2,0,0,1,0] 0
flowBeta[2,0,0,1,1] 13
flowBeta[2,0,1,0,0] 13
flowBeta[2,0,1,0,1] 0
flowBeta[2,0,1,1,0] 0
flowBeta[2,0,1,1,1] 0
flowBeta[2,0,2,0,0] 0
flowBeta[2,0,2,0,1] 13
flowBeta[2,0,2,1,0] 0
flowBeta[2,0,2,1,1] 0
flowBeta[2,0,3,0,0] 0
flowBeta[2,0,3,0,1] 0
flowBeta[2,0,3,1,0] 13
flowBeta[2,0,3,1,1] 0
flowBeta[2,0,4,0,0] 0
flowBeta[2,0,4,0,1] 0
flowBeta[2,0,4,1,0] 0
flowBeta[2,0,4,1,1] 0
flowBeta[3,0,0,0,0] 0
flowBeta[3,0,0,0,1] 0
flowBeta[3,0,0,1,0] 0
flowBeta[3,0,0,1,1] 0
flowBeta[3,0,1,0,0] 0
flowBeta[3,0,1,0,1] 0
flowBeta[3,0,1,1,0] 0
flowBeta[3,0,1,1,1] 0
flowBeta[3,0,2,0,0] 0
flowBeta[3,0,2,0,1] 0
flowBeta[3,0,2,1,0] 0
flowBeta[3,0,2,1,1] 0
flowBeta[3,0,3,0,0] 0
flowBeta[3,0,3,0,1] 0
flowBeta[3,0,3,1,0] 0
flowBeta[3,0,3,1,1] 0
flowBeta[3,0,4,0,0] 0
flowBeta[3,0,4,0,1] 0
flowBeta[3,0,4,1,0] 0
flowBeta[3,0,4,1,1] 0
flowBeta[4,0,0,0,0] 0
flowBeta[4,0,0,0,1] 0
flowBeta[4,0,0,1,0] 0
flowBeta[4,0,0,1,1] 0
flowBeta[4,0,1,0,0] 0
flowBeta[4,0,1,0,1] 0
flowBeta[4,0,1,1,0] 0
flowBeta[4,0,1,1,1] 0
flowBeta[4,0,2,0,0] 0
flowBeta[4,0,2,0,1] 0
flowBeta[4,0,2,1,0] 0
flowBeta[4,0,2,1,1] 0
flowBeta[4,0,3,0,0] 0
flowBeta[4,0,3,0,1] 0
flowBeta[4,0,3,1,0] 0
flowBeta[4,0,3,1,1] 0
flowBeta[4,0,4,0,0] 0
flowBeta[4,0,4,0,1] 0
flowBeta[4,0,4,1,0] 0
flowBeta[4,0,4,1,1] 0
flowGamma[0,0,0,0,0] 0
flowGamma[0,0,0,0,1] 0
flowGamma[0,0,0,1,0] 0
flowGamma[0,0,0,1,1] 0
flowGamma[0,0,1,0,0] 0
flowGamma[0,0,1,0,1] 0
flowGamma[0,0,1,1,0] 0
flowGamma[0,0,1,1,1] 0
flowGamma[0,0,2,0,0] 0
flowGamma[0,0,2,0,1] 0
flowGamma[0,0,2,1,0] 0
flowGamma[0,0,2,1,1] 0
flowGamma[0,0,3,0,0] 0
flowGamma[0,0,3,0,1] 0
flowGamma[0,0,3,1,0] 0
flowGamma[0,0,3,1,1] 0
flowGamma[0,0,4,0,0] 0
flowGamma[0,0,4,0,1] 0
flowGamma[0,0,4,1,0] 0
flowGamma[0,0,4,1,1] 0
flowGamma[1,0,0,0,0] 0
flowGamma[1,0,0,0,1] 0
flowGamma[1,0,0,1,0] 0
flowGamma[1,0,0,1,1] 24
flowGamma[1,0,1,0,0] 0
flowGamma[1,0,1,0,1] 24
flowGamma[1,0,1,1,0] 0
flowGamma[1,0,1,1,1] 0
flowGamma[1,0,2,0,0] 24
flowGamma[1,0,2,0,1] 0
flowGamma[1,0,2,1,0] 0
flowGamma[1,0,2,1,1] 0
flowGamma[1,0,3,0,0] 0
flowGamma[1,0,3,0,1] 24
flowGamma[1,0,3,1,0] 0
flowGamma[1,0,3,1,1] 0
flowGamma[1,0,4,0,0] 0
flowGamma[1,0,4,0,1] 0
flowGamma[1,0,4,1,0] 0
flowGamma[1,0,4,1,1] 0
flowGamma[2,0,0,0,0] 0
flowGamma[2,0,0,0,1] 0
flowGamma[2,0,0,1,0] 0
flowGamma[2,0,0,1,1] 13
flowGamma[2,0,1,0,0] 13
flowGamma[2,0,1,0,1] 0
flowGamma[2,0,1,1,0] 0
flowGamma[2,0,1,1,1] 0
flowGamma[2,0,2,0,0] 0
flowGamma[2,0,2,0,1] 0
flowGamma[2,0,2,1,0] 0
flowGamma[2,0,2,1,1] 13
flowGamma[2,0,3,0,0] 0
flowGamma[2,0,3,0,1] 13
flowGamma[2,0,3,1,0] 0
flowGamma[2,0,3,1,1] 0
flowGamma[2,0,4,0,0] 0
flowGamma[2,0,4,0,1] 0
flowGamma[2,0,4,1,0] 0
flowGamma[2,0,4,1,1] 0
flowGamma[3,0,0,0,0] 0
flowGamma[3,0,0,0,1] 0
flowGamma[3,0,0,1,0] 0
flowGamma[3,0,0,1,1] 0
flowGamma[3,0,1,0,0] 0
flowGamma[3,0,1,0,1] 0
flowGamma[3,0,1,1,0] 0
flowGamma[3,0,1,1,1] 0
flowGamma[3,0,2,0,0] 0
flowGamma[3,0,2,0,1] 0
flowGamma[3,0,2,1,0] 0
flowGamma[3,0,2,1,1] 0
flowGamma[3,0,3,0,0] 0
flowGamma[3,0,3,0,1] 0
flowGamma[3,0,3,1,0] 0
flowGamma[3,0,3,1,1] 0
flowGamma[3,0,4,0,0] 0
flowGamma[3,0,4,0,1] 0
flowGamma[3,0,4,1,0] 0
flowGamma[3,0,4,1,1] 0
flowGamma[4,0,0,0,0] 0
flowGamma[4,0,0,0,1] 0
flowGamma[4,0,0,1,0] 0
flowGamma[4,0,0,1,1] 0
flowGamma[4,0,1,0,0] 0
flowGamma[4,0,1,0,1] 0
flowGamma[4,0,1,1,0] 0
flowGamma[4,0,1,1,1] 0
flowGamma[4,0,2,0,0] 0
flowGamma[4,0,2,0,1] 0
flowGamma[4,0,2,1,0] 0
flowGamma[4,0,2,1,1] 0
flowGamma[4,0,3,0,0] 0
flowGamma[4,0,3,0,1] 0
flowGamma[4,0,3,1,0] 0
flowGamma[4,0,3,1,1] 0
flowGamma[4,0,4,0,0] 0
flowGamma[4,0,4,0,1] 0
flowGamma[4,0,4,1,0] 0
flowGamma[4,0,4,1,1] 0
flowEpsilon[0,0,0,0,0] 0
flowEpsilon[0,0,0,1,0] 0
flowEpsilon[0,0,1,0,0] 0
flowEpsilon[0,0,1,1,0] 0
flowEpsilon[0,0,2,0,0] 0
flowEpsilon[0,0,2,1,0] 0
flowEpsilon[0,0,3,0,0] 0
flowEpsilon[0,0,3,1,0] 0
flowEpsilon[0,0,4,0,0] 0
flowEpsilon[0,0,4,1,0] 0
flowEpsilon[1,0,0,0,0] 0
flowEpsilon[1,0,0,1,0] 24
flowEpsilon[1,0,1,0,0] 0
flowEpsilon[1,0,1,1,0] 24
flowEpsilon[1,0,2,0,0] 24
flowEpsilon[1,0,2,1,0] 0
flowEpsilon[1,0,3,0,0] 0
flowEpsilon[1,0,3,1,0] 24
flowEpsilon[1,0,4,0,0] 0
flowEpsilon[1,0,4,1,0] 0
flowEpsilon[2,0,0,0,0] 0
flowEpsilon[2,0,0,1,0] 13
flowEpsilon[2,0,1,0,0] 13
flowEpsilon[2,0,1,1,0] 0
flowEpsilon[2,0,2,0,0] 0
flowEpsilon[2,0,2,1,0] 13
flowEpsilon[2,0,3,0,0] 0
flowEpsilon[2,0,3,1,0] 13
flowEpsilon[2,0,4,0,0] 0
flowEpsilon[2,0,4,1,0] 0
flowEpsilon[3,0,0,0,0] 0
flowEpsilon[3,0,0,1,0] 0
flowEpsilon[3,0,1,0,0] 0
flowEpsilon[3,0,1,1,0] 0
flowEpsilon[3,0,2,0,0] 0
flowEpsilon[3,0,2,1,0] 0
flowEpsilon[3,0,3,0,0] 0
flowEpsilon[3,0,3,1,0] 0
flowEpsilon[3,0,4,0,0] 0
flowEpsilon[3,0,4,1,0] 0
flowEpsilon[4,0,0,0,0] 0
flowEpsilon[4,0,0,1,0] 0
flowEpsilon[4,0,1,0,0] 0
flowEpsilon[4,0,1,1,0] 0
flowEpsilon[4,0,2,0,0] 0
flowEpsilon[4,0,2,1,0] 0
flowEpsilon[4,0,3,0,0] 0
flowEpsilon[4,0,3,1,0] 0
flowEpsilon[4,0,4,0,0] 0
flowEpsilon[4,0,4,1,0] 0
zetaSelect[0,0,0,0] 0
zetaSelect[0,0,0,1] 0
zetaSelect[1,0,0,0] 0
zetaSelect[1,0,0,1] 1
zetaSelect[2,0,0,0] 0
zetaSelect[2,0,0,1] 1
zetaSelect[3,0,0,0] 0
zetaSelect[3,0,0,1] 0
zetaSelect[4,0,0,0] 0
zetaSelect[4,0,0,1] 0
gammaSelect[0,0,0,0,0] 0
gammaSelect[0,0,0,0,1] 0
gammaSelect[0,0,0,1,0] 0
gammaSelect[0,0,0,1,1] 0
gammaSelect[0,0,1,0,0] 0
gammaSelect[0,0,1,0,1] 0
gammaSelect[0,0,1,1,0] 0
gammaSelect[0,0,1,1,1] 0
gammaSelect[0,0,2,0,0] 0
gammaSelect[0,0,2,0,1] 0
gammaSelect[0,0,2,1,0] 0
gammaSelect[0,0,2,1,1] 0
gammaSelect[0,0,3,0,0] 0
gammaSelect[0,0,3,0,1] 0
gammaSelect[0,0,3,1,0] 0
gammaSelect[0,0,3,1,1] 0
gammaSelect[0,0,4,0,0] 0
gammaSelect[0,0,4,0,1] 0
gammaSelect[0,0,4,1,0] 0
gammaSelect[0,0,4,1,1] 0
gammaSelect[1,0,0,0,0] 0
gammaSelect[1,0,0,0,1] 0
gammaSelect[1,0,0,1,0] 0
gammaSelect[1,0,0,1,1] 1
gammaSelect[1,0,1,0,0] 0
gammaSelect[1,0,1,0,1] 1
gammaSelect[1,0,1,1,0] 0
gammaSelect[1,0,1,1,1] 0
gammaSelect[1,0,2,0,0] 1
gammaSelect[1,0,2,0,1] 0
gammaSelect[1,0,2,1,0] 0
gammaSelect[1,0,2,1,1] 0
gammaSelect[1,0,3,0,0] 0
gammaSelect[1,0,3,0,1] 1
gammaSelect[1,0,3,1,0] 0
gammaSelect[1,0,3,1,1] 0
gammaSelect[1,0,4,0,0] 0
gammaSelect[1,0,4,0,1] 0
gammaSelect[1,0,4,1,0] 0
gammaSelect[1,0,4,1,1] 0
gammaSelect[2,0,0,0,0] 0
gammaSelect[2,0,0,0,1] 0
gammaSelect[2,0,0,1,0] 0
gammaSelect[2,0,0,1,1] 1
gammaSelect[2,0,1,0,0] 1
gammaSelect[2,0,1,0,1] 0
gammaSelect[2,0,1,1,0] 0
gammaSelect[2,0,1,1,1] 0
gammaSelect[2,0,2,0,0] 0
gammaSelect[2,0,2,0,1] 0
gammaSelect[2,0,2,1,0] 0
gammaSelect[2,0,2,1,1] 1
gammaSelect[2,0,3,0,0] 0
gammaSelect[2,0,3,0,1] 1
gammaSelect[2,0,3,1,0] 0
gammaSelect[2,0,3,1,1] 0
gammaSelect[2,0,4,0,0] 0
gammaSelect[2,0,4,0,1] 0
gammaSelect[2,0,4,1,0] 0
gammaSelect[2,0,4,1,1] 0
gammaSelect[3,0,0,0,0] 0
gammaSelect[3,0,0,0,1] 0
gammaSelect[3,0,0,1,0] 0
gammaSelect[3,0,0,1,1] 0
gammaSelect[3,0,1,0,0] 0
gammaSelect[3,0,1,0,1] 0
gammaSelect[3,0,1,1,0] 0
gammaSelect[3,0,1,1,1] 0
gammaSelect[3,0,2,0,0] 0
gammaSelect[3,0,2,0,1] 0
gammaSelect[3,0,2,1,0] 0
gammaSelect[3,0,2,1,1] 0
gammaSelect[3,0,3,0,0] 0
gammaSelect[3,0,3,0,1] 0
gammaSelect[3,0,3,1,0] 0
gammaSelect[3,0,3,1,1] 0
gammaSelect[3,0,4,0,0] 0
gammaSelect[3,0,4,0,1] 0
gammaSelect[3,0,4,1,0] 0
gammaSelect[3,0,4,1,1] 0
gammaSelect[4,0,0,0,0] 0
gammaSelect[4,0,0,0,1] 0
gammaSelect[4,0,0,1,0] 0
gammaSelect[4,0,0,1,1] 0
gammaSelect[4,0,1,0,0] 0
gammaSelect[4,0,1,0,1] 0
gammaSelect[4,0,1,1,0] 0
gammaSelect[4,0,1,1,1] 0
gammaSelect[4,0,2,0,0] 0
gammaSelect[4,0,2,0,1] 0
gammaSelect[4,0,2,1,0] 0
gammaSelect[4,0,2,1,1] 0
gammaSelect[4,0,3,0,0] 0
gammaSelect[4,0,3,0,1] 0
gammaSelect[4,0,3,1,0] 0
gammaSelect[4,0,3,1,1] 0
gammaSelect[4,0,4,0,0] 0
gammaSelect[4,0,4,0,1] 0
gammaSelect[4,0,4,1,0] 0
gammaSelect[4,0,4,1,1] 0
deltaSelect[0,0,0,0,0] 0
deltaSelect[0,0,0,0,1] 0
deltaSelect[0,0,0,1,0] 0
deltaSelect[0,0,0,1,1] 0
deltaSelect[0,0,1,0,0] 0
deltaSelect[0,0,1,0,1] 0
deltaSelect[0,0,1,1,0] 0
deltaSelect[0,0,1,1,1] 0
deltaSelect[0,0,2,0,0] 0
deltaSelect[0,0,2,0,1] 0
deltaSelect[0,0,2,1,0] 0
deltaSelect[0,0,2,1,1] 0
deltaSelect[0,0,3,0,0] 0
deltaSelect[0,0,3,0,1] 0
deltaSelect[0,0,3,1,0] 0
deltaSelect[0,0,3,1,1] 0
deltaSelect[0,0,4,0,0] 0
deltaSelect[0,0,4,0,1] 0
deltaSelect[0,0,4,1,0] 0
deltaSelect[0,0,4,1,1] 0
deltaSelect[1,0,0,0,0] 0
deltaSelect[1,0,0,0,1] 0
deltaSelect[1,0,0,1,0] 1
deltaSelect[1,0,0,1,1] 0
deltaSelect[1,0,1,0,0] 0
deltaSelect[1,0,1,0,1] 0
deltaSelect[1,0,1,1,0] 1
deltaSelect[1,0,1,1,1] 0
deltaSelect[1,0,2,0,0] 1
deltaSelect[1,0,2,0,1] 0
deltaSelect[1,0,2,1,0] 0
deltaSelect[1,0,2,1,1] 0
deltaSelect[1,0,3,0,0] 0
deltaSelect[1,0,3,0,1] 0
deltaSelect[1,0,3,1,0] 0
deltaSelect[1,0,3,1,1] 0
deltaSelect[1,0,4,0,0] 1
deltaSelect[1,0,4,0,1] 1
deltaSelect[1,0,4,1,0] 1
deltaSelect[1,0,4,1,1] 0
deltaSelect[2,0,0,0,0] 0
deltaSelect[2,0,0,0,1] 0
deltaSelect[2,0,0,1,0] 1
deltaSelect[2,0,0,1,1] 0
deltaSelect[2,0,1,0,0] 0
deltaSelect[2,0,1,0,1] 1
deltaSelect[2,0,1,1,0] 0
deltaSelect[2,0,1,1,1] 0
deltaSelect[2,0,2,0,0] 0
deltaSelect[2,0,2,0,1] 0
deltaSelect[2,0,2,1,0] 1
deltaSelect[2,0,2,1,1] 0
deltaSelect[2,0,3,0,0] 0
deltaSelect[2,0,3,0,1] 0
deltaSelect[2,0,3,1,0] 0
deltaSelect[2,0,3,1,1] 0
deltaSelect[2,0,4,0,0] 1
deltaSelect[2,0,4,0,1] 0
deltaSelect[2,0,4,1,0] 0
deltaSelect[2,0,4,1,1] 0
deltaSelect[3,0,0,0,0] 0
deltaSelect[3,0,0,0,1] 0
deltaSelect[3,0,0,1,0] 0
deltaSelect[3,0,0,1,1] 0
deltaSelect[3,0,1,0,0] 0
deltaSelect[3,0,1,0,1] 0
deltaSelect[3,0,1,1,0] 0
deltaSelect[3,0,1,1,1] 0
deltaSelect[3,0,2,0,0] 0
deltaSelect[3,0,2,0,1] 0
deltaSelect[3,0,2,1,0] 0
deltaSelect[3,0,2,1,1] 0
deltaSelect[3,0,3,0,0] 0
deltaSelect[3,0,3,0,1] 0
deltaSelect[3,0,3,1,0] 0
deltaSelect[3,0,3,1,1] 0
deltaSelect[3,0,4,0,0] 0
deltaSelect[3,0,4,0,1] 0
deltaSelect[3,0,4,1,0] 0
deltaSelect[3,0,4,1,1] 0
deltaSelect[4,0,0,0,0] 0
deltaSelect[4,0,0,0,1] 0
deltaSelect[4,0,0,1,0] 0
deltaSelect[4,0,0,1,1] 0
deltaSelect[4,0,1,0,0] 0
deltaSelect[4,0,1,0,1] 0
deltaSelect[4,0,1,1,0] 0
deltaSelect[4,0,1,1,1] 0
deltaSelect[4,0,2,0,0] 0
deltaSelect[4,0,2,0,1] 0
deltaSelect[4,0,2,1,0] 0
deltaSelect[4,0,2,1,1] 0
deltaSelect[4,0,3,0,0] 0
deltaSelect[4,0,3,0,1] 0
deltaSelect[4,0,3,1,0] 0
deltaSelect[4,0,3,1,1] 0
deltaSelect[4,0,4,0,0] 0
deltaSelect[4,0,4,0,1] 0
deltaSelect[4,0,4,1,0] 0
deltaSelect[4,0,4,1,1] 0
timeForResourceI[0,0] 0
timeForResourceI[1,0] 190
timeForResourceI[2,0] 150
timeForResourceI[3,0] 0
timeForResourceI[4,0] 0
isResInFleet[0] 1
numNotEva[0,0] 479
numNotEva[0,1] 650
numNotEva[1,0] 407
numNotEva[1,1] 626
numNotEva[2,0] 453
numNotEva[2,1] 624
numNotEva[3,0] 479
numNotEva[3,1] 650
numNotEva[4,0] 479
numNotEva[4,1] 650
meanCost 7.6958680219130442e+06
C_zxi[0] 7903000
C_zxi[1] 7.2311900495652175e+06
C_zxi[2] 7.5391500600000005e+06
C_zxi[3] 7903000
C_zxi[4] 7903000
totalTime[0] 0
totalTime[1] 190
totalTime[2] 150
totalTime[3] 0
totalTime[4] 0
